c This Formular is generated by mcnf
c
c    horn? no 
c    forced? no 
c    mixed sat? no 
c    clause length = 3 
c
p cnf 20  91 
 10 9 -6 0
8 19 10 0
1 18 13 0
-20 18 8 0
12 18 15 0
19 -14 -5 0
-3 -2 -17 0
10 -9 18 0
-4 -17 3 0
-20 -5 -3 0
17 -13 -4 0
14 -1 19 0
7 3 -18 0
-9 -8 12 0
-17 -19 10 0
-10 -11 -17 0
10 -5 15 0
